p wcnf 130 65 66 
1 -35 46 0 
1 -49 116 0 
1 53 7 0 
1 -38 -19 0 
1 5 -79 0 
1 -21 9 0 
1 11 69 0 
1 -37 -6 0 
1 -35 -47 0 
1 -16 -39 0 
1 -50 92 0 
1 -117 51 0 
1 105 82 0 
1 51 33 0 
1 114 32 0 
1 126 -102 0 
1 -15 74 0 
1 -88 67 0 
1 -54 -8 0 
1 -129 -14 0 
1 -58 37 0 
1 55 64 0 
1 67 -49 0 
1 39 114 0 
1 -3 -76 0 
1 39 82 0 
1 -41 -108 0 
1 -20 106 0 
1 102 -10 0 
1 -70 -60 0 
1 -6 -19 0 
1 108 -103 0 
1 -62 66 0 
1 -34 -99 0 
1 -71 -70 0 
1 117 104 0 
1 -101 5 0 
1 -127 31 0 
1 -87 -51 0 
1 -64 -99 0 
1 -72 -37 0 
1 -2 10 0 
1 -96 103 0 
1 -84 62 0 
1 53 -68 0 
1 60 55 0 
1 108 16 0 
1 -25 -57 0 
1 126 -8 0 
1 70 -77 0 
1 72 -45 0 
1 102 37 0 
1 38 -9 0 
1 127 -130 0 
1 -51 -88 0 
1 -10 52 0 
1 -72 21 0 
1 48 -41 0 
1 112 95 0 
1 -61 -16 0 
1 -115 -54 0 
1 -41 42 0 
1 73 -24 0 
1 23 -49 0 
1 -24 82 0 
